NAME : rnd0_20.tsp
TYPE : TSP
DIMENSION : 20
EDGE_WEIGHT_TYPE : EUC_2D
NODE_COORD_SECTION
0 693 756
1 96 710
2 835 414
3 636 62
4 81 374
5 538 221
6 235 793
7 700 228
8 390 592
9 500 480
10 276 253
11 68 50
12 527 424
13 475 377
14 831 803
15 579 819
16 719 35
17 422 48
18 980 990
19 428 570
